shikaku_converter/resources/data/daily_special.dzn
size_x = 30;
size_y = 30;

given = [|
1, 3, 4|
1, 17, 15|
1, 21, 2|
1, 24, 4|
1, 26, 2|
2, 2, 3|
2, 23, 6|
3, 23, 15|
3, 27, 6|
3, 28, 4|
3, 29, 6|
4, 30, 2|
6, 29, 10|
7, 21, 108|
7, 26, 18|
8, 6, 6|
8, 12, 3|
8, 19, 2|
9, 4, 2|
9, 5, 2|
9, 18, 4|
9, 19, 2|
9, 21, 3|
9, 23, 12|
9, 24, 6|
10, 5, 8|
10, 6, 2|
10, 19, 3|
11, 1, 36|
11, 6, 3|
11, 14, 3|
11, 21, 2|
12, 21, 2|
12, 30, 10|
13, 19, 14|
13, 21, 2|
13, 26, 2|
14, 13, 11|
14, 17, 18|
14, 20, 2|
14, 27, 3|
15, 23, 8|
15, 25, 3|
15, 26, 2|
15, 30, 12|
16, 4, 12|
16, 21, 2|
16, 22, 2|
17, 3, 19|
17, 21, 2|
17, 23, 6|
17, 26, 2|
18, 4, 2|
18, 5, 8|
19, 14, 12|
20, 12, 90|
21, 1, 2|
21, 4, 2|
21, 18, 90|
22, 1, 5|
22, 6, 2|
22, 15, 32|
23, 5, 4|
23, 28, 36|
24, 11, 2|
24, 13, 7|
24, 14, 6|
24, 27, 10|
25, 12, 2|
25, 28, 2|
26, 8, 9|
26, 9, 3|
26, 10, 3|
26, 14, 4|
26, 16, 2|
26, 28, 2|
27, 3, 24|
27, 6, 3|
27, 8, 2|
27, 10, 2|
27, 13, 2|
27, 28, 6|
27, 30, 2|
28, 9, 5|
28, 11, 4|
28, 13, 2|
28, 14, 3|
28, 26, 10|
28, 30, 2|
29, 30, 2|
30, 13, 52|
30, 28, 2|
30, 30, 2|];
