shikaku_converter/resources/tasks/daily_special.txt
b4m15c2b4a2e3t6zc15c6_4_6zd2zzf10u108d18i6e3f2n2_2l4_2a3a12_6j8_2l3k36d3g3f2zc2h10r14a2d2p11c18b2f3y8a3_2c12c12p2_2j19q2a6b2g2_8zl12za90r2b2m90l5d2h32s4v36l2a7_6l10n2o2i9_3_3c4a2k2d24b3a2a2b2n6a2h5a4a2_3k10c2zc2l52n2a2